c generated by sgen3tocnf
c nLits = 636
c actual nVars = 101
c Command: sgen3tocnf 025 0 24 25 101 4 2 0 /dev/null
p cnf 101 212
-17 -77 -85 0
-17 -77 -97 0
-17 -85 -97 0
-77 -85 -97 0
-29 -53 -65 0
-29 -53 -89 0
-29 -65 -89 0
-53 -65 -89 0
-33 -49 -57 0
-33 -49 -78 0
-33 -57 -78 0
-49 -57 -78 0
-5 -21 -37 0
-5 -21 -54 0
-5 -37 -54 0
-21 -37 -54 0
-6 -41 -81 0
-6 -41 -93 0
-6 -81 -93 0
-41 -81 -93 0
-1 -45 -55 0
-1 -45 -73 0
-1 -55 -73 0
-45 -55 -73 0
-22 -25 -42 0
-22 -25 -90 0
-22 -42 -90 0
-25 -42 -90 0
-18 -43 -46 0
-18 -43 -61 0
-18 -46 -61 0
-43 -46 -61 0
-38 -69 -74 0
-38 -69 -79 0
-38 -74 -79 0
-69 -74 -79 0
-7 -26 -34 0
-7 -26 -62 0
-7 -34 -62 0
-26 -34 -62 0
-13 -19 -23 0
-13 -19 -58 0
-13 -23 -58 0
-19 -23 -58 0
-30 -35 -44 0
-30 -35 -70 0
-30 -44 -70 0
-35 -44 -70 0
-2 -59 -71 0
-2 -59 -86 0
-2 -71 -86 0
-59 -71 -86 0
-9 -39 -47 0
-9 -39 -87 0
-9 -47 -87 0
-39 -47 -87 0
-3 -50 -63 0
-3 -50 -66 0
-3 -63 -66 0
-50 -63 -66 0
-20 -27 -31 0
-20 -27 -82 0
-20 -31 -82 0
-27 -31 -82 0
-8 -51 -75 0
-8 -51 -98 0
-8 -75 -98 0
-51 -75 -98 0
-60 -83 -91 0
-60 -83 -99 0
-60 -91 -99 0
-83 -91 -99 0
-4 -24 -32 0
-4 -24 -94 0
-4 -32 -94 0
-24 -32 -94 0
-10 -64 -80 0
-10 -64 -84 0
-10 -80 -84 0
-64 -80 -84 0
-11 -14 -56 0
-11 -14 -72 0
-11 -56 -72 0
-14 -56 -72 0
-12 -67 -76 0
-12 -67 -95 0
-12 -76 -95 0
-67 -76 -95 0
-15 -40 -68 0
-15 -40 -100 0
-15 -68 -100 0
-40 -68 -100 0
-28 -52 -88 0
-28 -52 -96 0
-28 -88 -96 0
-52 -88 -96 0
-16 -36 -48 0
-16 -36 -92 0
-16 -36 -101 0
-16 -48 -92 0
-16 -48 -101 0
-16 -92 -101 0
-36 -48 -92 0
-36 -48 -101 0
-36 -92 -101 0
-48 -92 -101 0
1 2 3 0
1 2 4 0
1 3 4 0
2 3 4 0
5 6 7 0
5 6 8 0
5 7 8 0
6 7 8 0
9 10 11 0
9 10 12 0
9 11 12 0
10 11 12 0
13 14 15 0
13 14 16 0
13 15 16 0
14 15 16 0
17 18 19 0
17 18 20 0
17 19 20 0
18 19 20 0
21 22 23 0
21 22 24 0
21 23 24 0
22 23 24 0
25 26 27 0
25 26 28 0
25 27 28 0
26 27 28 0
29 30 31 0
29 30 32 0
29 31 32 0
30 31 32 0
33 34 35 0
33 34 36 0
33 35 36 0
34 35 36 0
37 38 39 0
37 38 40 0
37 39 40 0
38 39 40 0
41 42 43 0
41 42 44 0
41 43 44 0
42 43 44 0
45 46 47 0
45 46 48 0
45 47 48 0
46 47 48 0
49 50 51 0
49 50 52 0
49 51 52 0
50 51 52 0
53 54 55 0
53 54 56 0
53 55 56 0
54 55 56 0
57 58 59 0
57 58 60 0
57 59 60 0
58 59 60 0
61 62 63 0
61 62 64 0
61 63 64 0
62 63 64 0
65 66 67 0
65 66 68 0
65 67 68 0
66 67 68 0
69 70 71 0
69 70 72 0
69 71 72 0
70 71 72 0
73 74 75 0
73 74 76 0
73 75 76 0
74 75 76 0
77 78 79 0
77 78 80 0
77 79 80 0
78 79 80 0
81 82 83 0
81 82 84 0
81 83 84 0
82 83 84 0
85 86 87 0
85 86 88 0
85 87 88 0
86 87 88 0
89 90 91 0
89 90 92 0
89 91 92 0
90 91 92 0
93 94 95 0
93 94 96 0
93 94 101 0
93 95 96 0
93 95 101 0
93 96 101 0
94 95 96 0
94 95 101 0
94 96 101 0
95 96 101 0
97 98 99 0
97 98 100 0
97 99 100 0
98 99 100 0
